8
2147483647 57 56 53 85 53 57 90 
57 2147483647 89 55 69 25 100 38 
56 89 2147483647 4 43 93 94 28 
53 55 4 2147483647 75 15 77 34 
85 69 43 75 2147483647 41 39 64 
53 25 93 15 41 2147483647 37 40 
57 100 94 77 39 37 2147483647 60 
90 38 28 34 64 40 60 2147483647 
